3 3 1 1 0.0
100.0 100.0 100.0
999999.0
99999 99999 99999
99999 99999 99999

48
999 999 999
999 999 999
500
50
6.2 0.0 0.0

57
999 999 999
999 999 999
130
50
2.51 0.0 0.0

38
999 999 999
999 999 999
110
50
1.78 0.0 0.0

